p tdp 79 78
11 3
68 57
69 20
29 69
42 45
28 41
41 21
75 7
40 9
6 30
11 36
54 20
60 74
73 13
76 56
26 27
66 51
27 30
77 11
79 62
10 63
42 17
61 22
37 43
73 74
68 45
1 24
72 66
52 64
59 58
11 14
65 16
48 41
19 68
70 26
53 12
74 27
31 50
49 78
23 9
28 78
25 4
62 40
16 67
25 61
39 40
22 71
56 44
50 32
8 46
11 72
22 43
8 47
58 55
23 69
69 15
27 18
70 67
38 23
34 2
2 37
31 33
47 35
30 71
28 37
33 39
55 76
53 61
35 24
17 40
63 29
7 76
55 46
44 5
51 44
50 6
8 64
56 28
